% demand
num_movements = 20;
loading_factor = [1650, 1000, 1550, 1700, 850, 1550, 800, 1100, 1900, 1050, 850, 1150, 1200, 1050, 850, 1850, 1550, 1850, 1300, 1450];
pickup_time = [0, 0, 0, 2, 2, 2, 2, 2, 4, 4, 4, 5, 5, 5, 6, 6, 6, 6, 7, 8];
delivery_time = [1, 3, 1, 4, 5, 4, 6, 6, 5, 6, 5, 6, 6, 6, 10, 7, 10, 10, 10, 10];

% transporter definition
total_capacity = 7000;
num_decks = 3;
capacity = [3000, 1000, 3000];

% ways out of decks
num_ways_out = 1;
paths_out = array3d(decks, ways_out, decks, [
% ways out of deck d1
2, 3, 0, 

% ways out of deck d2
3, 0, 0, 

% ways out of deck d3
0, 0, 0,	

]);

